
ACE v2.3 

  instance
    name:restricted_gardener

  Loading variables...

  Loading constraints...

  domains
    types:2  values:421  sizes:[20:20,21:1]
  variables
    count:21  arrays:1  degrees:[1:21]
  constraints
    count:2  specific:2  arities:[1:1,20:1]
    distribution:[AllDifferentComplete:1,Extension1:1]
    wck:0.13  cpu:0.593  mem:13M534

  Building solver... 

  solver
    guaranteedAC:true
    wck:0.15  cpu:0.609  mem:16M531

  preprocessing
    effs:1  values:400  unsat:true
    wck:0.0  cpu:0.609  mem:16M531


  global
    effs:1
    stop:FULL_EXPLORATION
    wck:0.15  cpu:0.609  mem:16M531

s UNSATISFIABLE

d WRONG DECISIONS 0
d FOUND SOLUTIONS 0
d COMPLETE EXPLORATION

c real time : 0.609
